(set-logic SLIA)
(define-fun func0  ((A String) (B Int) (C String) (D Int) ) String (str.substr A  (+ 1  (str.indexof A  C  D )) B ))
(define-fun func1  ((A String) (B Int) (C String) ) String (str.substr A  (+ 1  (str.indexof A  C  0 )) B ))
(define-fun func2  ((A String) (B Int) (C String) (D String) (E Int) ) String (str.substr A  (+ 1  (str.indexof C  D  E )) B ))
(define-fun func3  ((A String) (B Int) (C String) (D String) ) String (str.substr A  (+ 1  (str.indexof C  D  0 )) B ))
(define-fun func4  ((A String) (B Int) (C Int) ) String (str.substr A  (+ 1  C ) B ))
(define-fun func5  ((A String) (B Int) (C Int) (D String) (E Int) ) String (str.substr A  (+ C  (str.indexof A  D  E )) B ))
(define-fun func6  ((A String) (B Int) (C Int) (D String) ) String (str.substr A  (+ C  (str.indexof A  D  0 )) B ))
(define-fun func7  ((A String) (B Int) (C Int) (D String) (E String) (F Int) ) String (str.substr A  (+ C  (str.indexof D  E  F )) B ))
(define-fun func8  ((A String) (B Int) (C Int) (D String) (E String) ) String (str.substr A  (+ C  (str.indexof D  E  0 )) B ))
(define-fun func9  ((A String) (B Int) (C Int) (D Int) ) String (str.substr A  (+ C  D ) B ))
(define-fun func10  ((A String) (B Int) (C Int) ) String (str.substr A  (+ B  C ) (str.len A )))
(define-fun func11  ((A String) (B Int) (C Int) ) String (str.substr A  (+ B  C ) 3 ))
(define-fun func12  ((A String) (B Int) ) String (str.substr A  0  B ))
(define-fun func13  ((A String) (B String) (C Int) ) String (str.substr A  0  (str.indexof A  B  C )))
(define-fun func14  ((A String) (B String) ) String (str.substr A  0  (str.indexof A  B  0 )))
(define-fun func15  ((A String) (B String) (C String) (D Int) ) String (str.substr A  0  (str.indexof B  C  D )))
(define-fun func16  ((A String) (B String) (C String) ) String (str.substr A  0  (str.indexof B  C  0 )))
(define-fun func17  ((A String) (B Int) (C Int) (D Int) ) String (str.substr A  (- C  D ) B ))
(define-fun func18  ((A String) (B Int) (C Int) (D Int) ) String (str.substr A  B  (+ C  D )))
(define-fun func19  ((A String) (B Int) (C String) (D Int) ) String (str.substr A  B  (str.indexof A  C  D )))
(define-fun func20  ((A String) (B Int) (C String) ) String (str.substr A  B  (str.indexof A  C  0 )))
(define-fun func21  ((A String) (B Int) (C String) (D String) (E Int) ) String (str.substr A  B  (str.indexof C  D  E )))
(define-fun func22  ((A String) (B Int) (C String) (D String) ) String (str.substr A  B  (str.indexof C  D  0 )))
(define-fun func23  ((A String) (B Int) ) String (str.substr A  B  (str.len A )))
(define-fun func24  ((A String) (B Int) (C Int) (D Int) ) String (str.substr A  B  (- C  D )))
(define-fun func25  ((A String) (B Int) ) String (str.substr A  B  3 ))
(define-fun func26  ((A String) (B Int) (C Int) (D String) (E String) ) String (str.substr A  (+ C  (str.indexof D  E  1 )) B ))
(define-fun func27  ((A String) (B Int) (C Int) (D String) ) String (str.substr A  (+ B  C ) (str.len D )))
(define-fun func28  ((A String) (B Int) (C String) ) String (str.substr A  B  (str.len C )))
(define-fun func29  ((A Int) ) Int (+ 1  (+ 1  A )))
(define-fun func30  ((A Int) (B Int) ) Int (+ 1  (+ A  B )))
(define-fun func31  ((A String) (B String) (C Int) ) Int (+ 1  (str.indexof A  B  C )))
(define-fun func32  ((A String) (B String) ) Int (+ 1  (str.indexof A  B  0 )))
(define-fun func33  ((A String) (B String) ) Int (+ 1  (str.indexof A  B  1 )))
(define-fun func34  ((A Int) (B Int) ) Int (+ A  (+ 1  B )))
(define-fun func35  ((A Int) (B Int) (C Int) ) Int (+ A  (+ B  C )))
(define-fun func36  ((A Int) (B String) (C String) (D Int) ) Int (+ A  (str.indexof B  C  D )))
(define-fun func37  ((A Int) (B String) (C String) ) Int (+ A  (str.indexof B  C  1 )))
(define-fun func38  ((A Int) (B String) (C String) ) Int (+ A  (str.indexof B  C  0 )))
(define-fun func39  ((A String) (B String) ) Int (str.indexof A  B  1 ))
(define-fun func40  ((A String) (B String) ) Int (str.indexof A  B  0 ))
(define-fun func41  ((A String) (B String) (C String) (D String) ) String (str.replace A  B  (str.++ C  D )))
(define-fun func42  ((A String) (B String) (C String) (D String) (E String) ) String (str.replace (str.replace C  D  E ) A  B ))
(define-fun func43  ((A String) (B String) ) Bool (str.contains A  B ))
(define-fun func44  ((A String) ) String (str.at A  0 ))
(define-fun func45  ((A String) (B String) (C String) ) String (str.++ A  (str.++ B  C )))
(define-fun func46  ((A String) (B String) (C String) (D String) ) String (str.++ A  (str.++ B  (str.++ C  D ))))
(define-fun func47  ((A String) (B String) (C String) (D Int) ) String (str.++ A  (str.++ (str.at C  D ) B )))
(define-fun func48  ((A String) (B String) (C Int) ) String (str.++ (str.at B  C ) A ))
(define-fun func49  ((A String) (B String) ) String (str.++ (str.at B  0 ) A ))
(define-fun func50  ((A String) (B Int) (C String) (D String) ) String (str.++ (str.at A  B ) (str.++ C  D )))
(define-fun func51  ((A String) (B String) (C String) (D String) (E Int) ) String (str.++ A  (str.++ B  (str.++ (str.at D  E ) C ))))
(define-fun func52  ((A Int) (B String) ) Int (- (str.len B ) A ))
(define-fun func53  ((A String) ) Int (- (str.len A ) 3 ))
(define-fun func54  ((A Int) ) Int (- A  3 ))
(synth-fun f ((_arg_0 String)) String
( (Start String (ntString))
 (ntString String (
	_arg_0 "" " " 
	(func0 ntString ntInt ntString ntInt)
	(func1 ntString ntInt ntString)
	(func2 ntString ntInt ntString ntString ntInt)
	(func5 ntString ntInt ntInt ntString ntInt)
	(func6 ntString ntInt ntInt ntString)
	(func7 ntString ntInt ntInt ntString ntString ntInt)
	(func8 ntString ntInt ntInt ntString ntString)
	(func10 ntString ntInt ntInt)
	(func11 ntString ntInt ntInt)
	(func12 ntString ntInt)
	(func13 ntString ntString ntInt)
	(func14 ntString ntString)
	(func17 ntString ntInt ntInt ntInt)
	(func20 ntString ntInt ntString)
	(func21 ntString ntInt ntString ntString ntInt)
	(func22 ntString ntInt ntString ntString)
	(func25 ntString ntInt)
	(func26 ntString ntInt ntInt ntString ntString)
	(func27 ntString ntInt ntInt ntString)
	(func41 ntString ntString ntString ntString)
	(func42 ntString ntString ntString ntString ntString)
	(func44 ntString)
	(func45 ntString ntString ntString)
	(func46 ntString ntString ntString ntString)
	(func47 ntString ntString ntString ntInt)
	(func48 ntString ntString ntInt)
	(func49 ntString ntString)
	(str.replace ntString ntString ntString)
	(int.to.str ntInt)
))
 (ntInt Int (
	1 0 -1 1 2 3 4 5 
	(func29 ntInt)
	(func31 ntString ntString ntInt)
	(func32 ntString ntString)
	(func33 ntString ntString)
	(func34 ntInt ntInt)
	(func36 ntInt ntString ntString ntInt)
	(func37 ntInt ntString ntString)
	(func38 ntInt ntString ntString)
	(func39 ntString ntString)
	(func40 ntString ntString)
	(func52 ntInt ntString)
	(func53 ntString)
	(func54 ntInt)
	(+ ntInt ntInt)
	(- ntInt ntInt)
	(str.len ntString)
	(str.to.int ntString)
))
 (ntBool Bool (
	true false
	(= ntInt ntInt)
	(str.prefixof ntString ntString)
	(str.contains ntString ntString)
))
))
(constraint (= (f "April 1 1799") "1799"))
(constraint (= (f "April 11 1867") "1867"))
(constraint (= (f "February 12 1806") "1806"))
(constraint (= (f "February 21 1798") "1798"))
(constraint (= (f "February 28 1844 as Delaware Township") "1844"))
(constraint (= (f "February 5 1798") "1798"))
(constraint (= (f "February 7 1892 Verona Township") "1892"))
(constraint (= (f "February 9 1797") "1797"))
(constraint (= (f "January 19 1748") "1748"))
(constraint (= (f "July 10 1721 as Upper Penns Neck Township") "1721"))
(constraint (= (f "March 15 1860") "1860"))
(constraint (= (f "March 17 1870 <as Raritan Township>") "1870"))
(constraint (= (f "March 17 1874") "1874"))
(constraint (= (f "March 23 1864") "1864"))
(constraint (= (f "March 5 1867") "1867"))
(constraint (= (f "April 28th 1828") "1828"))
(check-synth)
